benchmarks_vrp/CMT5/tsp_classic/CMT5_5.vrp
NAME: CMT5_5
TYPE: CVRP
COMMENT: 1291.29 - Cluster Nr.5
DIMENSION: 14
CAPACITY: 200
EDGE_WEIGHT_TYPE: EUC_2D
NODE_COORD_TYPE: TWOD_COORDS
NODE_COORD_SECTION: 
6 42 7
5 39 10
8 45 10
4 35 35
9 48 21
13 50 15
14 47 16
12 44 17
1 46 10
10 46 13
7 45 20
11 53 12
2 44 13
3 49 11
DEPOT_SECTION: 
4
-1
DEMAND_SECTION: 
14 25
1 23
10 8
2 28
7 11
9 20
11 6
6 5
3 18
4 0
12 9
8 18
5 10
13 19
EOF
