benchmarks_vrp/CMT5/tsp_classic/CMT5_5.tour
NAME: CMT5_5 solution
TYPE: TOUR
TOUR_SECTION:
4 7 12 14 10 2 5 6 8 1 3 11 13 9 -1
-1
EOF